Name: EasyAcademy5
Courses: 134
Rooms: 25
Days: 5
Periods_per_day: 7
Curricula: 22
Constraints: 505

COURSES:
cU1 t419 3 2 30
c447 t421 3 3 100
c448 t422 2 2 15
c449 t423 4 3 100
cU2 t494 2 2 100
c451 t424 2 2 105
c452 t425 1 1 30
c453 no_teacher2 4 2 30
c454 t426 2 2 30
cU10 t476 3 3 130
cU8 t428 3 3 230
cU9 t1365 3 3 230
c458 t429 2 2 30
c459 t430 2 2 100
c460 t431 2 2 225
c461 t432 2 2 150
c462 t433 2 2 20
c463 t430 3 3 30
c464 t434 2 2 230
c465 t435 2 2 330
c466 t432 2 2 130
c467 t429 2 2 230
c468 t429 2 2 230
c469 t436 2 2 30
c470 t437 2 2 150
c471 t1368 3 3 100
c472 t438 2 2 30
c473 t438 2 2 10
c475 t423 2 2 130
c476 t503 2 2 230
c477 t440 3 3 200
cU6 t441 3 3 30
c480 t443 3 3 65
c481 t444 2 2 5
c482 t445 2 2 20
c483 t446 2 2 50
c484 t447 2 2 100
c485 t448 2 2 170
c486 t425 2 2 75
c487 t448 2 2 10
c488 t449 3 3 10
c489 t450 2 2 65
cU7 t451 3 3 170
c492 t452 3 3 135
c493 t453 3 3 30
cU5 t454 2 2 15
c497 t424 1 1 60
c500 t424 1 1 60
c502 t455 1 1 60
c503 t455 1 1 60
c506 t455 1 1 60
c507 t456 1 1 60
c508 t441 3 3 200
c509 t457 3 3 230
c510 t458 3 3 180
c511 t460 1 1 30
c512 t460 1 1 30
c513 t460 1 1 30
c514 t460 2 2 30
c515 t1371 1 1 50
c516 t460 2 2 50
c517 t460 2 2 50
c518 t460 1 1 50
c519 t460 1 1 50
c520 t461 2 2 50
c521 t462 2 2 100
c522 t462 1 1 20
c523 t463 1 1 50
c524 t463 1 1 40
c525 t464 2 2 50
c526 t466 1 1 50
c529 t466 1 1 50
c530 t467 2 2 25
c531 t467 2 2 50
c532 t468 1 1 25
c533 t468 1 1 25
c534 t468 2 2 25
c535 t468 2 2 25
c536 t469 3 3 30
c537 t469 2 2 30
c539 t470 2 2 50
c540 t470 2 2 50
c541 t470 2 2 20
c542 t471 2 2 5
c543 t471 1 1 5
c544 t472 2 2 20
c545 t473 2 2 90
c546 t474 3 3 150
c547 t475 2 2 150
c551 t477 3 3 40
c552 t478 3 3 10
c553 t422 3 3 30
c554 t479 2 2 45
c555 t480 2 2 20
c556 t481 2 2 10
c557 t457 2 2 10
c558 t446 2 2 10
cU4 t482 3 2 10
c562 t484 2 2 115
c563 t485 3 3 105
c564 t486 2 2 20
c565 t479 3 3 30
c566 t425 3 3 30
c567 t478 2 2 230
c568 t487 2 2 180
c569 t483 2 2 200
c570 t455 1 1 150
c571 t488 3 3 180
c572 t489 3 3 230
c573 t488 3 3 45
c574 t488 2 2 100
c575 t490 2 2 35
cU3 t481 2 2 20
c578 t491 2 2 20
c579 t490 2 2 230
c580 t491 2 2 230
c581 t492 2 2 130
c582 t493 3 3 100
c583 t1367 2 2 30
c584 t494 2 2 20
c595 t503 2 2 230
c2927 t521 3 3 190
c2933 t467 1 1 40
c2934 t461 2 2 50
c2935 t464 2 2 50
c2936 t463 1 1 40
c2937 t463 1 1 50
c2939 t462 2 2 50
c2940 t468 1 1 30
c2941 t468 1 1 90
c2942 t460 1 1 30
c2943 t462 2 2 40
c2944 t462 2 2 40
c2945 t462 2 2 40

ROOMS:
r161 48
r206 50
r207 25
r208 150
r209 80
r210 25
r211 50
r215 25
r216 20
r217 35
r218 28
r219 20
r503 230
r195 100
r196 25
r197 100
r198 25
r199 97
r202 16
r204 60
r205 25
r157 330
r158 24
r159 35
r160 41

CURRICULA:
cu129 5 cU5 c448 c452 c453 c454
cu130 10 c449 c451 c462 c544 c555 c562 c563 c564 c584 c522
cu134 5 cU7 c460 c480 c482 c486
cu135 5 cU7 c460 c470 c489 c562
cu136 4 cU3 c485 c486 c578
cu138 5 c551 c553 c565 c566 c583
cu141 3 c492 c573 c575
cu142 5 cU6 cU1 c463 c469 c493
cu144 5 c460 c465 c477 c508 c569
cu148 3 c480 c486 c554
cu195 7 cU4 c458 c483 c487 c552 c556 c557
cu197 4 cU2 c447 c471 c484
cu201 4 c460 c481 c489 c562
cu216 4 c465 c510 c568 c571
cu217 8 c459 c492 c542 c545 c574 c582 c521 c2939
cu218 8 cU8 c468 c502 c503 c579 c595 c2927 c2943
cu219 7 cU10 c466 c475 c506 c507 c581 c2944
cu220 16 cU9 c467 c476 c497 c500 c580 c511 c512 c513 c514 c530 c534 c535 c536 c537 c2945
cu222 15 c461 c485 c546 c547 c570 c518 c519 c520 c525 c531 c541 c2933 c2934 c2935 c2942
cu223 5 c451 c543 c563 c524 c2936
cu224 17 c464 c509 c567 c572 c515 c516 c517 c523 c526 c529 c532 c533 c539 c540 c2937 c2940 c2941
cu225 7 c472 c473 c488 c551 c558 c562 c573

UNAVAILABILITY_CONSTRAINTS:
cU1 0 0
cU1 0 1
c447 0 0
c447 0 1
c447 0 2
c447 0 4
c447 0 5
c447 0 6
c447 2 1
c447 2 2
c447 4 0
c447 4 1
c447 4 2
c447 4 4
c447 4 5
c447 4 6
c448 0 0
c448 2 0
c448 2 1
c448 2 2
c449 0 0
c449 0 1
c449 2 1
c449 2 2
cU2 0 0
cU2 1 0
cU2 2 0
cU2 2 1
cU2 2 2
cU2 3 0
cU2 4 0
c451 0 2
c451 1 2
c451 2 1
c451 2 2
c451 3 2
c451 4 2
c452 2 1
c452 2 2
c453 2 1
c453 2 2
c454 0 0
c454 0 1
c454 2 1
c454 2 2
cU10 0 0
cU10 2 1
cU10 2 2
cU10 3 4
cU10 4 1
cU10 4 4
cU8 0 1
cU8 0 2
cU8 2 1
cU8 2 2
c458 0 0
c458 2 1
c458 2 2
c458 4 0
c459 2 1
c459 2 2
c460 2 1
c460 2 2
c460 4 1
c461 1 1
c461 1 2
c461 2 1
c461 2 2
c461 3 1
c461 3 2
c462 0 0
c462 0 1
c462 0 2
c462 2 6
c462 3 0
c463 2 1
c463 2 2
c464 0 4
c464 1 4
c464 2 1
c464 2 2
c465 0 0
c465 2 1
c465 2 2
c465 4 6
c466 1 1
c466 1 2
c466 2 1
c466 2 2
c466 3 1
c466 3 2
c467 0 0
c467 2 1
c467 2 2
c467 4 0
c468 0 0
c468 2 1
c468 2 2
c468 4 0
c469 0 0
c469 2 0
c469 2 1
c469 2 2
c470 0 0
c470 0 1
c470 1 0
c470 1 1
c470 1 2
c470 1 4
c470 1 5
c470 1 6
c470 2 0
c470 2 1
c470 2 2
c470 2 4
c470 2 5
c470 2 6
c471 1 1
c471 1 2
c471 1 4
c471 1 5
c471 1 6
c471 2 4
c471 2 5
c471 2 6
c471 3 0
c471 3 1
c471 4 0
c471 4 1
c471 4 2
c472 1 4
c472 2 1
c472 2 2
c472 3 4
c473 1 4
c473 2 1
c473 2 2
c473 3 4
c475 0 0
c475 0 1
c475 2 1
c475 2 2
c476 2 1
c476 2 2
c477 1 5
c477 1 6
c477 2 1
c477 2 2
cU6 0 5
cU6 0 6
cU6 2 1
cU6 2 2
c480 0 6
c480 1 6
c480 2 1
c480 2 2
c480 2 6
c480 3 6
c480 4 6
c481 2 1
c481 2 2
c481 4 2
c481 4 4
c482 2 1
c482 2 2
c482 4 4
c482 4 5
c483 0 0
c483 0 1
c483 2 1
c483 2 2
c484 2 1
c484 2 2
c485 0 0
c485 0 1
c485 2 1
c485 2 2
c485 4 0
c485 4 1
c485 4 2
c485 4 4
c485 4 5
c485 4 6
c486 2 1
c486 2 2
c487 0 0
c487 0 1
c487 2 1
c487 2 2
c487 4 0
c487 4 1
c487 4 2
c487 4 4
c487 4 5
c487 4 6
c489 0 0
c489 4 6
cU7 2 1
cU7 2 2
c492 2 1
c492 2 2
c493 2 1
c493 2 2
cU5 0 0
cU5 0 1
cU5 0 2
cU5 0 6
cU5 1 6
cU5 2 1
cU5 2 2
cU5 2 6
cU5 3 6
cU5 4 6
c497 0 2
c497 1 2
c497 2 1
c497 2 2
c497 3 2
c497 4 2
c500 0 2
c500 1 2
c500 2 1
c500 2 2
c500 3 2
c500 4 2
c502 0 1
c502 0 2
c503 0 1
c503 0 2
c506 0 1
c506 0 2
c508 0 5
c508 0 6
c508 2 1
c508 2 2
c509 2 1
c509 2 2
c509 3 5
c509 3 6
c510 0 0
c510 1 0
c510 2 0
c510 2 1
c510 2 2
c510 3 0
c510 4 0
c515 0 0
c515 0 6
c515 1 0
c515 1 6
c515 2 0
c515 2 6
c515 3 0
c515 3 6
c515 4 0
c515 4 6
c521 0 2
c521 0 4
c522 0 2
c522 0 4
c530 0 6
c530 1 6
c531 0 6
c531 1 6
c532 0 0
c532 4 6
c533 0 0
c533 4 6
c534 0 0
c534 4 6
c535 0 0
c535 4 6
c536 0 4
c536 1 4
c536 2 4
c536 3 4
c536 4 4
c537 0 4
c537 1 4
c537 2 4
c537 3 4
c537 4 4
c539 2 0
c539 4 0
c539 4 1
c539 4 2
c539 4 4
c539 4 5
c539 4 6
c540 2 0
c540 4 0
c540 4 1
c540 4 2
c540 4 4
c540 4 5
c540 4 6
c541 2 0
c541 4 0
c541 4 1
c541 4 2
c541 4 4
c541 4 5
c541 4 6
c545 3 6
c545 4 6
c546 0 5
c546 0 6
c546 1 0
c546 1 1
c546 1 2
c546 1 6
c546 2 6
c546 3 6
c546 4 6
c547 0 2
c547 2 1
c547 2 2
c551 0 0
c551 0 6
c551 1 0
c551 1 6
c551 2 0
c551 2 1
c551 2 2
c551 2 6
c551 3 0
c551 3 6
c551 4 0
c551 4 6
c552 0 5
c552 0 6
c552 1 5
c552 1 6
c552 2 1
c552 2 2
c552 2 5
c552 2 6
c552 3 5
c552 3 6
c552 4 5
c552 4 6
c553 0 0
c553 2 0
c553 2 1
c553 2 2
c554 0 6
c554 1 6
c554 2 1
c554 2 2
c554 2 6
c554 3 6
c554 4 5
c554 4 6
c555 0 0
c555 0 1
c555 0 2
c555 1 0
c555 1 1
c555 1 2
c555 2 0
c555 2 1
c555 2 2
c555 3 0
c555 3 1
c555 3 2
c555 4 0
c555 4 1
c555 4 2
c556 0 0
c556 0 1
c556 2 1
c556 2 2
c557 2 1
c557 2 2
c557 3 5
c557 3 6
c558 0 0
c558 0 1
c558 2 1
c558 2 2
cU4 2 1
cU4 2 2
c562 0 0
c562 0 1
c562 1 1
c562 2 1
c562 2 2
c562 3 1
c562 4 1
c562 4 6
c563 0 0
c563 0 1
c563 1 4
c563 1 5
c563 1 6
c563 2 1
c563 2 2
c564 0 1
c564 1 1
c565 0 6
c565 1 6
c565 2 1
c565 2 2
c565 2 6
c565 3 6
c565 4 5
c565 4 6
c566 2 1
c566 2 2
c567 0 5
c567 0 6
c567 1 5
c567 1 6
c567 2 1
c567 2 2
c567 2 5
c567 2 6
c567 3 5
c567 3 6
c567 4 5
c567 4 6
c568 2 1
c568 2 2
c569 2 1
c569 2 2
c570 0 1
c570 0 2
c571 0 4
c571 0 5
c571 2 1
c571 2 2
c572 0 6
c572 1 6
c572 2 1
c572 2 2
c573 0 4
c573 0 5
c573 2 1
c573 2 2
c574 0 4
c574 0 5
c574 2 1
c574 2 2
c575 0 2
c575 0 4
c575 2 1
c575 2 2
cU3 0 0
cU3 0 1
cU3 2 1
cU3 2 2
c578 0 0
c578 0 1
c578 2 1
c578 2 2
c579 0 2
c579 0 4
c579 2 1
c579 2 2
c580 0 0
c580 0 1
c580 2 1
c580 2 2
c581 0 0
c581 1 0
c581 2 1
c581 2 2
c582 1 5
c582 1 6
c582 2 1
c582 2 2
c583 1 0
c583 1 1
c583 1 2
c583 1 4
c583 1 5
c583 1 6
c583 3 4
c583 3 5
c583 3 6
c584 0 0
c584 1 0
c584 2 0
c584 2 1
c584 2 2
c584 3 0
c584 4 0
c595 2 1
c595 2 2
c2927 2 1
c2927 2 2
c2933 0 6
c2933 1 6
c2939 0 2
c2939 0 4
c2940 0 0
c2940 4 6
c2941 0 0
c2941 4 6
c2943 0 2
c2943 0 4
c2944 0 2
c2944 0 4
c2945 0 2
c2945 0 4

END.
